Reproduction of the Original Problem/Instances/S3-5/S3-15-5-2-s.txt
     300       5    0.15
       3       1       3       3       1      15       2      11      15      12       1
       3       1       3       2       3       1       8      10      15      10       1
       1       3       1       2       2      10       4      14      13      15       1
       1       1       3       1       3      14       1       6       2      16       1
       2       3       2       3       2      11       3       5      13       2       1
       2       2       2       3       2      14      10      14      15       2       1
       2       3       1       1       1      13      13       2       6       2       1
       1       1       1       1       2       4       8       6       2       6       1
       3       3       3       2       1       5       8       6       2      14       1
       1       3       2       2       2       4      12      14      16      14       1
       1       3       2       1       3      13       2       1      14      13       1
       2       3       1       1       2       4      13       4       4       7       1
       2       3       1       1       2       0       9      16      10      14       1
       3       1       3       2       2       9      11      15       1       5       1
       3       3       3       3       3      14      10       0      15       9       1
       2       2       2       3       1       5       7       9       2      10       1
       3       2       1       2       3      12      11       1       6      10       1
       2       3       3       3       2       7       9       0       9       1       1
       3       2       2       3       2       4      16      13       2      14       1
       3       1       2       1       1       4       2       1      16       1       1
       1       2       3       2       2      10      15       5      16       3       1
       1       2       3       1       2      16       1      13      14      12       1
       3       2       2       1       2      16       1       4      10       8       1
       3       2       1       3       1      13      12       6       1      11       1
       3       1       2       3       3      12      11      13      15       6       1
       2       3       1       3       2      11      16       4       9      11       1
       3       1       1       2       2       0       8      16      13       6       1
       2       3       1       2       3      10       1       1      10      15       1
       2       1       3       3       1      12      15      13       5       1       1
       2       3       1       2       2      16      12       2       7       3       1
       3       2       3       2       3      12      14      13      13      16       1
       3       2       2       2       2       1       2       2       6       1       1
       3       2       2       1       1      10       1       9       7      10       1
       2       3       3       3       3       6       4       3      15      16       1
       2       1       1       2       3      13      13       5       3      14       1
       2       3       2       3       3       3       3      15       5       6       1
       3       2       2       2       1      12      13      12      16       4       1
       1       2       1       3       3       4       5       5       6       7       1
       2       3       3       2       3       4       6       2       7      10       1
       3       2       1       3       1      13      13      12       3       9       1
       1       2       1       1       3       0       0       4       7       5       1
       1       3       2       3       2      13       7      12      10      15       1
       3       1       2       3       1       4      10       4       6       2       1
       1       2       1       1       3       0      10      15       0       1       1
       1       1       1       2       2       9       6       2       9       5       1
       1       3       3       1       2       4       5       0       5       8       1
       2       2       1       2       3      14      15      11       7      16       1
       2       2       2       3       1       2      13      14      16       4       1
       2       2       2       3       2       5       6       6      12      11       1
       3       1       3       3       1       1      12      16      11      15       1
       2       2       2       3       1       9      11      16       1       2       1
       2       3       2       3       2      11       8      15      14       5       1
       3       2       2       3       2      11      12       6      14      15       1
       2       2       2       2       2      13       4      16       5      16       1
       1       1       1       2       1      16       1       0       7      14       1
       3       2       1       1       1      15       6       6       3      13       1
       2       1       1       1       3       0      11       3      10      11       1
       3       1       1       3       1       5       1       3       1      15       1
       2       2       2       2       1       5       6       6      15       9       1
       1       2       1       2       3      14       6      10      10       5       1
       1       3       3       2       2       5       6       5       2      15       1
       3       3       3       2       3       2       8       8       0      12       1
       3       1       1       2       3       8      15      10       5      16       1
       1       3       2       2       2      10      14       1      15       4       1
       3       2       2       2       1      13       9       5      15       5       1
       2       2       3       1       2       9       3      15       8       1       1
       1       3       3       1       3       7       5       7      10       6       1
       1       2       2       1       2       7      14       4      10      13       1
       2       3       2       2       3       8      13       7      11       3       1
       2       3       2       1       3       9       1       1       2       1       1
       3       2       1       3       2      15      16      10       0       7       1
       1       2       1       2       2       1       0       8       6       7       1
       1       2       1       2       3       9       7       5      16       0       1
       2       2       2       3       2      15      16      11      12       7       1
       2       2       2       3       3      14       6       6       7       1       1
       2       1       2       3       2      11       7       9       8       5       1
       1       1       2       2       3       0       7      14       2       1       1
       2       3       2       2       3       3       7       5       6      12       1
       1       1       1       1       1      13      13       5      15      15       1
       1       2       1       2       3       3       5      16       9       6       1
       1       2       3       1       2       3       4      10       6      14       1
       2       3       2       3       2       2       3       4      11       6       1
       2       3       2       2       2       1      14      11       3       9       1
       2       1       1       3       2       6       9       1       2       3       1
       1       2       2       3       3       7       1       1       2      12       1
       1       2       2       2       3      13       9      13      11       3       1
       2       3       3       1       3       4       3       2       2       3       1
       1       2       3       3       1      15       9       3      13       5       1
       3       3       1       2       2       6      13       0      12       2       1
       1       2       1       2       2       5       0       4       3       6       1
       3       2       2       1       1       0       8       8      14       1       1
       3       2       2       3       2       0      13      12      12       1       1
       1       3       1       2       3      16       8       7      10      15       1
       3       1       2       3       1       6      16       6      16       8       1
       1       3       2       3       1       6       8       0       9       4       1
       2       2       1       1       1       5       2       0       2       9       1
       2       1       1       3       1       0      13      15       8      14       1
       2       3       1       1       2       8      14       4      16       5       1
       2       2       3       2       2       2      14      14       1       6       1
       2       2       1       1       2       1      13      15       9      13       1
       1       1       1       2       2       3      16       9      14       1       1
       1       2       2       3       3      15       7      12      12      16       1
       1       3       3       3       1      12       4      12      15       6       1
       2       3       2       2       3      15       2       9       5       2       1
       3       2       2       1       1      14       0      14       8       4       1
       2       1       2       3       3      14      14      16       8      12       1
       3       1       2       3       2       7      14      14       2       8       1
       3       2       2       2       1       3      14      12      14       2       1
       2       1       3       3       3       0       0       9      12       7       1
       3       1       2       2       3      13       7       2      15      16       1
       1       1       1       3       2       7       8      10       3       1       1
       1       1       2       1       2       9      12       2      16      16       1
       2       2       2       2       3      14      16       6       8       9       1
       1       1       1       3       2       3      14       5       1       5       1
       1       3       3       3       3      14      14      15       7      16       1
       3       3       3       2       2       8       0      16       0       7       1
       3       2       3       2       1      16       2      16      13      16       1
       2       3       1       3       2       6       7      16       6       3       1
       1       2       3       3       1       8      10       8       3       7       1
       3       2       2       3       3      15       0       3       9       4       1
       3       2       3       1       2      13       5       4      12       5       1
       2       2       2       1       1       8       7       6       9       4       1
       3       3       3       2       1       3       3       7       3       8       1
       2       1       3       3       1       2      16      10      11      12       1
       3       3       2       1       3       6      16       1       7       1       1
       3       1       3       2       2       4       3       9       8      12       1
       1       2       3       3       2      10       1       8       4      16       1
       1       1       1       2       1       7      14      11       3       8       1
       1       1       1       2       1       7       9      15      11       3       1
       3       2       3       1       3      16       8       8      12       2       1
       3       3       1       1       1       0       9      15       3      11       1
       1       3       3       2       1       0       5       0      16      12       1
       2       1       3       2       1       6      10       4       0      15       1
       2       2       2       3       2      16      14       9       8       1       1
       2       1       3       2       3       0      13      16       8       6       1
       2       3       2       2       1       5       3      15      16       5       1
       2       3       2       2       3      14      11      11       4       2       1
       3       3       3       3       3       1       3       3       7      15       1
       1       3       3       3       3       2       0       1       6      10       1
       1       2       2       3       2      11       7      16       3      15       1
       2       2       1       2       3      14      11       4      11      14       1
       2       3       3       1       1       1       4      15      10      13       1
       3       3       2       2       2       5       6       2       9       5       1
       2       3       3       2       2      12       6       0      13       6       1
       1       1       2       1       2       2       0       9      16       8       1
       1       1       1       1       2       5      14      12      10       7       1
       1       2       2       2       2       1       4      12      16      10       1
       3       1       3       3       1       6      13      12       6      11       1
       2       3       3       1       2      11       9      16       7       8       1
       2       2       3       2       2      10       6       3      13       1       1
       1       1       1       2       3      12      14       9       1       8       1
       1       2       2       1       3       6       9       0      13       0       1
       3       1       1       1       3       3       3       5       8       3       1
       3       2       3       2       2       9       9      15       5      15       1
       2       2       2       1       3       7       2      14      15       2       1
       1       3       2       2       3      14      15      16      12       0       1
       3       3       2       2       1       0       1      14       6       9       1
       1       3       3       3       1       7       7      11       1      11       1
       1       1       3       2       2       3       1       8       3      12       1
       2       3       1       2       2       2      13      16       2       8       1
       3       2       3       3       3      10      13       8      15      10       1
       1       1       2       1       1      10      11       2       3      13       1
       3       1       2       3       2      13      15      13       3       0       1
       2       3       2       1       2      13      10      15      12       4       1
       3       3       1       3       3      12       0       6      12       3       1
       2       1       2       1       1       3      12       5      13      12       1
       1       3       2       1       1       9       8       1      12      15       1
       1       3       1       1       1       9       6       5       4       2       1
       1       3       2       1       1       7       6       2      14       5       1
       2       2       1       2       1       4      14      16       8       0       1
       2       2       1       3       3      11       4       1       8       9       1
       1       1       3       1       2       2      12       1      11      13       1
       1       2       1       2       2       4       3       2       4       7       1
       3       2       2       1       2       6      11       2       1      14       1
       3       3       1       2       1       0       8       8       0      10       1
       1       2       2       1       2      14      12       3       0       5       1
       3       3       2       3       2       5      10       5      12       9       1
       1       3       1       3       3      12       1       7       9       6       1
       2       1       2       2       2       9       3       9       8       2       1
       3       1       1       2       1       2       3       2       3      10       1
       1       3       3       1       3      10       2       2      12      15       1
       2       3       1       2       1       4      15       7       1       7       1
       1       1       2       3       2      15      13       4      16       7       1
       3       3       1       1       3      16       3       9      10       1       1
       1       1       3       1       2       7      15       9       6      16       1
       2       3       3       3       1      13       5      14       0      13       1
       2       3       3       1       2       9       4      16      11       4       1
       2       2       1       1       1       1      15       6       1       0       1
       3       3       3       1       2       9       3       0      16      16       1
       2       1       1       1       3      10       4       9       8       5       1
       3       1       3       2       3      10      15       9      13       4       1
       2       1       2       3       1       3       1       6      15       2       1
       3       3       1       2       3       2      14      16       0       1       1
       1       2       3       1       1       9      10      10       8       1       1
       3       3       3       1       2       5      14      14       2      16       1
       3       3       1       1       3       7      11       1       1      13       1
       3       1       3       2       2       3       0      14       0       6       1
       1       1       2       1       1      10       0       6       2       3       1
       1       1       1       3       3      14      14       6       7       0       1
       2       3       3       2       1      15       5       1       3       7       1
       3       1       2       2       1      16       9       9       4      16       1
       1       1       2       3       3       2       9       5       2      15       1
       2       2       3       1       2      16       4       4       6       4       1
       1       1       3       2       2      11      14      14       6       5       1
       2       1       1       2       2       0      12       8      14       3       1
       2       1       2       3       1      16      11       7       7       4       1
       3       1       1       3       2      15      15       2       8       0       1
       3       3       1       1       2       7      15       1       3       3       1
       2       3       3       1       3      13       6       5       1       7       1
       3       1       3       2       2       0      12      11      12      13       1
       2       1       1       3       1       4       2      16      12       0       1
       2       1       3       2       2       3       7      13       7      13       1
       1       1       3       2       2      11       0       5      13       0       1
       2       3       1       2       3       3      13       6       4       3       1
       2       3       1       3       2       3      13       8       5      15       1
       2       1       3       2       1       5       6      11      14      16       1
       1       2       2       1       1       5      14       8      10       7       1
       1       2       1       2       3       5       1      10       9      10       1
       1       2       3       3       1      15      15      16       3       1       1
       1       2       1       1       3       1      11      14       8       9       1
       3       1       3       1       1       1       4      13       6      13       1
       1       3       3       1       2      15      13       8       8      12       1
       1       1       2       3       1       9      13      15      13       8       1
       3       3       2       3       3      13      14       1       1       0       1
       3       1       1       1       1       9      11      11      14      15       1
       1       2       1       1       3       7      14      15      14       9       1
       2       1       1       2       1       1      11       0       6       5       1
       3       3       1       3       3       7       5       3       1      10       1
       3       1       2       1       1       9      10       2      14       1       1
       3       3       1       2       2       7       2       1      10      12       1
       2       3       1       3       2       6      10      11      14       7       1
       1       3       2       1       3       2      16       6      11      15       1
       1       3       1       3       2       5       3       6       9       3       1
       1       1       2       2       3       4      10      15      13      11       1
       1       3       3       2       1      11       4      15       7       6       1
       1       3       2       2       2       9       9       1      14      11       1
       3       2       1       1       1      11      11      10      16      13       1
       1       3       3       3       3       9      16      13       1       0       1
       1       1       1       2       1      10      11       3       2       2       1
       2       3       2       2       3       6       2      11       5      12       1
       3       1       3       2       2       5      16      16      14       6       1
       2       2       3       3       2       3       1       0      12       9       1
       1       2       1       1       2      10      11      12      14       9       1
       2       3       2       2       2       6       0       2      11       3       1
       1       1       1       3       1      14      10      13      12       2       1
       3       3       3       2       2       8       9       9       5       5       1
       2       2       1       2       3       4       3       3       8       1       1
       3       3       1       3       3      11       7       9       0       4       1
       1       2       3       1       3      14      11       2       5      14       1
       1       1       1       2       1       1      13       7       8       2       1
       2       2       3       2       3      16      13      15       2       0       1
       1       1       1       1       2       0       5      13       3       5       1
       1       1       3       2       3      11       3      12       0       1       1
       2       1       3       1       1      16       1       4      10      14       1
       3       1       2       1       2       3       7      10       4       5       1
       1       2       1       1       1      15       5       0       2      14       1
       2       2       1       2       2      16       4      12       0      10       1
       2       3       1       1       1       2       1       1       8      15       1
       2       1       1       3       2      12       4       6       2      15       1
       2       3       3       3       2       9      13       4       5       4       1
       3       2       2       1       3       2       1      15       0       3       1
       1       2       2       1       1      10      16       7      16       6       1
       1       2       3       1       3      15       0       4      13       0       1
       3       2       2       3       1       9       3       7       3      16       1
       1       2       2       2       2       6      16       9       0      10       1
       3       1       3       3       2      10      10       0       3      15       1
       1       1       1       2       3      11       0      16       2      13       1
       1       2       2       3       2      14       4      14       4       8       1
       3       1       1       3       1       9      12      16       4      11       1
       1       1       3       2       2       7       8      13       2       8       1
       2       3       2       1       3      12       9       0       6       5       1
       1       3       2       3       3       3       2      13      14       1       1
       1       3       1       1       2      11       4       2      11       1       1
       3       1       1       3       2      10       4       6       1       1       1
       3       3       1       2       1      14       7       7       5      15       1
       3       3       1       1       1       9       6      11       2       0       1
       2       3       3       2       2       9       3      16      12      14       1
       2       3       2       3       2       7       8       5      15      10       1
       1       2       2       3       2       9      11       5      16       0       1
       2       1       2       3       3       2      15       9      16       0       1
       2       1       3       2       3      13       8       6       3       6       1
       3       1       3       2       1       3      11      12       2      16       1
       1       3       2       3       1      14      12       6      12       7       1
       3       1       1       3       3       1      13      10       4      14       1
       2       2       1       1       3       6       8      11       7      15       1
       3       3       2       2       2       3      12       5      13      10       1
       1       3       3       1       3       2       7       6       0       7       1
       3       1       1       1       2      13      13      12      16       4       1
       3       1       3       3       3       5       2       2       5      15       1
       2       1       3       2       2      10      13      14       5       9       1
       1       3       1       2       3       5       2      13      13      13       1
       2       3       3       3       3       8       2       0      13       1       1
       3       2       2       3       3      12       2      16       5      12       1
       3       3       3       1       1       3      15      13       8       3       1
       2       2       1       2       1       2       5      12       2       3       1
       3       1       1       2       3      11      11      10       1       7       1
       1       1       3       3       2       0      14       6      16       5       1
       1       3       2       3       1       2       7      13      10       8       1
       1       3       1       2       3       6       5       6       1       6       1
       2       1       1       2       1       6       5       4       8       9       1
      93     112     115     116      66
     205     234     226     242     145
     384     347     350     364     217